Route #1: 1 15 18 42 3 11 34 1
Route #2: 1 19 45 36 24 44 32 13 23 33 1
Route #3: 1 48 17 29 30 22 31 47 14 43 1
Route #4: 1 28 16 9 40 27 21 4 8 1
Route #5: 1 37 41 46 35 10 25 5 12 1
Route #6: 1 38 26 20 39 7 1
Route #7: 1 6 2 1
cost 1252.5437995913203
